Linux optc-09-03 4.15.0-58-generic #64-Ubuntu SMP Tue Aug 6 11:12:41 UTC 2019 x86_64 x86_64 x86_64 GNU/Linux

top - 20:50:53 up 1 day, 10:51,  0 users,  load average: 0,85, 0,97, 0,99
Tasks: 290 gesamt,   1 laufend, 149 schlafend,   0 gestoppt,   0 Zombie
%CPU(s):  7,2 be,  0,2 sy,  0,0 ni, 92,6 un,  0,0 wa,  0,0 hi,  0,0 si,  0,0 st
KiB Spch : 97514992 gesamt, 95489328 frei,   647936 belegt,  1377732 Puff/Cache
KiB Swap:  8388604 gesamt,  8388604 frei,        0 belegt. 96125120 verfü Spch 

  PID USER      PR  NI    VIRT    RES    SHR S  %CPU %MEM     ZEIT+ BEFEHL
    1 root      20   0  233856   9464   6764 S   0,0  0,0   0:11.35 systemd
    2 root      20   0       0      0      0 S   0,0  0,0   0:00.11 kthreadd
    4 root       0 -20       0      0      0 I   0,0  0,0   0:00.00 kworker/0:+
    6 root      20   0       0      0      0 I   0,0  0,0   0:00.00 kworker/u3+
    7 root       0 -20       0      0      0 I   0,0  0,0   0:00.00 mm_percpu_+
    8 root      20   0       0      0      0 S   0,0  0,0   0:00.01 ksoftirqd/0
    9 root      20   0       0      0      0 I   0,0  0,0   0:12.98 rcu_sched
   10 root      20   0       0      0      0 I   0,0  0,0   0:00.00 rcu_bh

hard time limit: 04:10:00
hard mem limit: 55100

SLURM jobID: 2182537

@01 /nfs/optimi/kombadon/IP/miplib/khb05250.mps.gz ===========
-----------------------------
Do 22. Aug 20:50:53 CEST 2019
-----------------------------
@03 1566499853
@05 7200
SCIP version 6.0.0 [precision: 8 byte] [memory: block] [mode: optimized] [LP solver: CPLEX 12.8.0.0] [GitHash: 41ab6e0014]
Copyright (C) 2002-2018 Konrad-Zuse-Zentrum fuer Informationstechnik Berlin (ZIB)

External codes: 
  Readline 7.0         GNU library for command line editing (gnu.org/s/readline)
  CPLEX 12.8.0.0       Linear Programming Solver developed by IBM (www.cplex.com)
  CppAD 20180000.0     Algorithmic Differentiation of C++ algorithms developed by B. Bell (www.coin-or.org/CppAD)
  ZLIB 1.2.11          General purpose compression library by J. Gailly and M. Adler (zlib.net)
  GMP 6.1.2            GNU Multiple Precision Arithmetic Library developed by T. Granlund (gmplib.org)
  bliss 0.73p          Computing Graph Automorphism Groups by T. Junttila and P. Kaski (http://www.tcs.hut.fi/Software/bliss/)

user parameter file <scip.set> not found - using default parameters

SCIP> 
SCIP> set load /home/optimi/bzfhende/opti/scip-opti/check/../settings/enable_treeeprofile.set
loaded parameter file </home/optimi/bzfhende/opti/scip-opti/check/../settings/enable_treeprofile.set>
SCIP> set misc referencevalue 1.0694022600e+08
misc/referencevalue = 106940226
SCIP> set limits time 7200
limits/time = 7200
SCIP> set limits nodes 2100000000
limits/nodes = 2100000000
SCIP> set limits memory 50000
limits/memory = 50000
SCIP> set lp advanced threads 1
lp/threads = 1
SCIP> set timing clocktype 1
timing/clocktype = 1
SCIP> set display freq 10000
display/freq = 10000
SCIP> set memory savefac 1.0
memory/savefac = 1
SCIP> set save /home/optimi/bzfhende/opti/scip-opti/check/treesize.estimation.jouurnal.3/bzfhende.MMMc.73_khb05250.scip.M640.enable_treeprofile.set
saved parameter file </home/optimi/bzfhende/opti/scip-opti/check/treesize.estimation.journal.3/bzfhende.MMMc.73_khb05250.scip.M640.enable_treeprofile.set>
SCIP> read /nfs/optimi/kombadon/IP/miplib/khb05250.mps.gz

read problem </nfs/optimi/kombadon/IP/miplib/khb05250.mps.gz>
============

original problem has 1350 variables (24 bin, 0 int, 0 impl, 1326 cont) and 101 constraints
SCIP> display parameters

number of parameters = 2448
non-default parameter settings:
display/freq = 10000
limits/time = 7200
limits/nodes = 2100000000
limits/memory = 50000
lp/threads = 1
memory/savefac = 1
misc/referencevalue = 106940226
presolving/maxrestarts = 0
estimates/profile/enabled = TRUE
estimates/profile/maxdepthfactor = 10
estimates/profile/freq = 0

SCIP> optimize

Activating tree profile data collection
presolving:
(round 1, fast)       51 del vars, 1 del conss, 0 add conss, 2548 chg bounds, 0 chg sides, 0 chg coeffs, 0 upgd conss, 0 impls, 0 clqs
(round 2, fast)       51 del vars, 1 del conss, 0 add conss, 2596 chg bounds, 0 chg sides, 0 chg coeffs, 0 upgd conss, 0 impls, 0 clqs
(round 3, exhaustive) 51 del vars, 1 del conss, 0 add conss, 2596 chg bounds, 0 chg sides, 0 chg coeffs, 24 upgd conss, 0 impls, 0 clqs
   (0.0s) probing cycle finished: starting next cycle
presolving (4 rounds: 4 fast, 2 medium, 2 exhaustive):
 51 deleted vars, 1 deleted constraints, 0 added constraints, 2596 tightened bounds, 0 added holes, 0 changed sides, 0 changed coefficients
 24 implications, 0 cliques
presolved problem has 1299 variables (24 bin, 0 int, 0 impl, 1275 cont) and 100 constraints
     24 constraints of type <varbound>
     76 constraints of type <linear>
Presolving Time: 0.01

 time | node  | left  |LP iter|LP it/n| mem |mdpt |frac |vars |cons |cols |rows |cuts |confs|strbr|  dualbound   | primalbound  |  gap   
k 0.0s|     1 |     0 |     7 |     - |  11M|   0 |   - |1299 | 100 |1299 | 100 |   0 |   0 |   0 | 0.000000e+00 | 1.287860e+08 |    Inf 
  0.0s|     1 |     0 |    23 |     - |  11M|   0 |  19 |1299 | 100 |1299 | 100 |   0 |   0 |   0 | 9.591946e+07 | 1.287860e+08 |  34.26%
r 0.0s|     1 |     0 |    23 |     - |  11M|   0 |  19 |1299 | 100 |1299 | 100 |   0 |   0 |   0 | 9.591946e+07 | 1.267855e+08 |  32.18%
s 0.0s|     1 |     0 |    23 |     - |  11M|   0 |  19 |1299 | 100 |1299 | 100 |   0 |   1 |   0 | 9.591946e+07 | 1.252997e+08 |  30.63%
  0.0s|     1 |     0 |    55 |     - |  11M|   0 |  15 |1299 | 100 |1299 | 115 |  15 |   1 |   0 | 1.035541e+08 | 1.252997e+08 |  21.00%
  0.0s|     1 |     0 |    78 |     - |  11M|   0 |  16 |1299 | 100 |1299 | 126 |  26 |   1 |   0 | 1.047948e+08 | 1.252997e+08 |  19.57%
  0.0s|     1 |     0 |    87 |     - |  11M|   0 |  14 |1299 | 100 |1299 | 132 |  32 |   1 |   0 | 1.049105e+08 | 1.252997e+08 |  19.43%
  0.0s|     1 |     0 |    93 |     - |  11M|   0 |  11 |1299 | 100 |1299 | 135 |  35 |   1 |   0 | 1.050933e+08 | 1.252997e+08 |  19.23%
r 0.0s|     1 |     0 |    93 |     - |  12M|   0 |  11 |1299 | 100 |1299 | 135 |  35 |   1 |   0 | 1.050933e+08 | 1.201043e+08 |  14.28%
  0.0s|     1 |     0 |   111 |     - |  12M|   0 |   8 |1299 | 100 |1299 | 143 |  43 |   1 |   0 | 1.059253e+08 | 1.201043e+08 |  13.39%
r 0.0s|     1 |     0 |   111 |     - |  12M|   0 |   8 |1299 | 100 |1299 | 143 |  43 |   1 |   0 | 1.059253e+08 | 1.162418e+08 |   9.74%
s 0.0s|     1 |     0 |   111 |     - |  12M|   0 |   8 |1299 | 100 |1299 | 143 |  43 |   1 |   0 | 1.059253e+08 | 1.132400e+08 |   6.91%
  0.0s|     1 |     0 |   118 |     - |  12M|   0 |   9 |1299 | 100 |1299 | 147 |  47 |   1 |   0 | 1.061698e+08 | 1.132400e+08 |   6.66%
  0.1s|     1 |     0 |   134 |     - |  12M|   0 |  11 |1299 | 100 |1299 | 152 |  52 |   1 |   0 | 1.063219e+08 | 1.132400e+08 |   6.51%
  0.1s|     1 |     0 |   148 |     - |  12M|   0 |  11 |1299 | 100 |1299 | 157 |  57 |   1 |   0 | 1.065335e+08 | 1.132400e+08 |   6.30%
 time | node  | left  |LP iter|LP it/n| mem |mdpt |frac |vars |cons |cols |rows |cuts |confs|strbr|  dualbound   | primalbound  |  gap   
  0.1s|     1 |     0 |   161 |     - |  12M|   0 |   7 |1299 | 100 |1299 | 163 |  63 |   1 |   0 | 1.065615e+08 | 1.132400e+08 |   6.27%
  0.1s|     1 |     0 |   176 |     - |  13M|   0 |   8 |1299 | 100 |1299 | 169 |  69 |   1 |   0 | 1.068270e+08 | 1.132400e+08 |   6.00%
  0.1s|     1 |     0 |   178 |     - |  13M|   0 |   7 |1299 | 100 |1299 | 171 |  71 |   1 |   0 | 1.069085e+08 | 1.132400e+08 |   5.92%
s 0.1s|     1 |     0 |   178 |     - |  13M|   0 |   7 |1299 | 100 |1299 | 171 |  71 |   1 |   0 | 1.069085e+08 | 1.119272e+08 |   4.69%
  0.1s|     1 |     0 |   179 |     - |  13M|   0 |   7 |1299 | 100 |1299 | 172 |  72 |   1 |   0 | 1.069122e+08 | 1.119272e+08 |   4.69%
  0.1s|     1 |     0 |   181 |     - |  13M|   0 |   7 |1299 | 100 |1299 | 173 |  73 |   1 |   0 | 1.069122e+08 | 1.119272e+08 |   4.69%
i 0.1s|     1 |     0 |   260 |     - |  13M|   0 |   - |1299 | 100 |1299 | 173 |  73 |   1 |   0 | 1.069122e+08 | 1.087513e+08 |   1.72%
E 0.1s|     1 |     0 |   260 |     - |  13M|   0 |   7 |1299 | 100 |1299 | 173 |  73 |   1 |   0 | 1.069122e+08 | 1.069402e+08 |   0.03%
  0.2s|     1 |     0 |   260 |     - |  13M|   0 |   7 |1299 | 100 |1299 | 173 |  73 |   1 |   0 | 1.069122e+08 | 1.069402e+08 |   0.03%
  0.2s|     1 |     0 |   263 |     - |  13M|   0 |  11 |1299 | 100 |1299 | 174 |  74 |   1 |   0 | 1.069145e+08 | 1.069402e+08 |   0.02%
  0.2s|     1 |     0 |   271 |     - |  13M|   0 |   5 |1299 |  92 |1299 | 174 |  74 |   4 |   3 | 1.069270e+08 | 1.069402e+08 |   0.01%
  0.2s|     1 |     0 |   276 |     - |  13M|   0 |   2 |1299 |  92 |1299 | 171 |  77 |   4 |   3 | 1.069281e+08 | 1.069402e+08 |   0.01%
  0.2s|     1 |     0 |   288 |     - |  13M|   0 |   3 |1299 |  92 |1299 | 172 |  78 |   4 |   3 | 1.069325e+08 | 1.069402e+08 |   0.01%
  0.2s|     1 |     0 |   289 |     - |  13M|   0 |   1 |1299 |  87 |1299 | 172 |  78 |   5 |   4 | 1.069326e+08 | 1.069402e+08 |   0.01%
  0.2s|     1 |     0 |   300 |     - |  14M|   0 |   1 |1299 |  87 |1299 | 174 |  80 |   5 |   4 | 1.069359e+08 | 1.069402e+08 |   0.00%
SCIP nodes: 1 Estimation: -1
 time | node  | left  |LP iter|LP it/n| mem |mdpt |frac |vars |cons |cols |rows |cuts |confs|strbr|  dualbound   | primalbound  |  gap   
  0.2s|     1 |     2 |   300 |     - |  14M|   0 |   1 |1299 |  87 |1299 | 174 |  80 |   5 |   4 | 1.069359e+08 | 1.069402e+08 |   0.00%
   (0.2s) symmetry computation started: requiring (bin +, int -, cont -), (fixed: bin -, int +, cont -)
   (0.2s) symmetry computation finished: 10 generators found (max: 1500, log10 of symmetry group size: 6.2)
   (0.2s) turning off presolver <domcol> for remaining computations in order to avoid conflicts
SCIP nodes: 2 Estimation: -1
Report 1
Time Elapsed: 0.19
  Tree Data        : 5 nodes (3 visited, 2 inner, 1 leaves, 2 open), progress: 0.5000
Tree Estimation    :       estim       value       trend  resolution      smooth
  wbe              :          -1           -           -           -           -
  tree profile     :          -1           -           -           -           -
  gap              :           1     0.99999     0.99999           1           1
  progress         :           3     0.50000     0.50000           1           3
  leaf-frequency   :           2     0.16667     0.66667           1           2
  ssg              :           1     0.14477    -0.85523           1           1
  open-nodes       :           6     2.00000     2.00000           1           6
End of Report 1

SCIP nodes: 4 Estimation: -1
Report 2
Time Elapsed: 0.19
  Tree Data        : 5 nodes (4 visited, 2 inner, 2 leaves, 1 open), progress: 0.7500
Tree Estimation    :       estim       value       trend  resolution      smooth
  wbe              :           3           -           -           -           -
  tree profile     :          -1           -           -           -           -
  gap              :           3     0.99999     0.84999           1           3
  progress         :           4     0.75000     0.44938           1           4
  leaf-frequency   :           3     0.37500     0.58279           1           3
  ssg              :           3     0.14477    -0.78695           1           3
  open-nodes       :           8     1.00000     1.61000           1           8
End of Report 2

* 0.2s|     5 |     0 |   312 |  26.8 |  17M|   2 |   - |1299 |  82 |1299 | 152 |  80 |   5 |   4 | 1.069402e+08 | 1.069402e+08 |   0.00%
Report 3
Time Elapsed: 0.19
  Tree Data        : 5 nodes (5 visited, 2 inner, 3 leaves, 0 open), progress: 1.0000
Tree Estimation    :       estim       value       trend  resolution      smooth
  wbe              :           4           -           -           -           -
  tree profile     :          -1           -           -           -           -
  gap              :           5     1.00000     0.71349           1           4
  progress         :           5     1.00000     0.40369           1           5
  leaf-frequency   :           5     0.50000     0.38347           1           5
  ssg              :           5     0.00000    -0.67784           1           4
  open-nodes       :           5     0.00000     1.25510           1           6
End of Report 3


SCIP Status        : problem is solved [optimal solution found]
Solving Time (sec) : 0.19
Solving Nodes      : 5
Primal Bound       : +1.06940226000000e+08 (29 solutions)
Dual Bound         : +1.06940226000000e+08
Gap                : 0.00 %

SCIP> display statistics

SCIP Status        : problem is solved [optimal solution found]
Total Time         :       0.19
  solving          :       0.19
  presolving       :       0.01 (included in solving)
  reading          :       0.00
  copying          :       0.01 (2 #copies) (minimal 0.00, maximal 0.01, average 0.01)
Original Problem   :
  Problem name     : KHB05250
  Variables        : 1350 (24 binary, 0 integer, 0 implicit integer, 1326 continuous)
  Constraints      : 101 initial, 101 maximal
  Objective        : minimize, 1273 non-zeros (abs.min = 136, abs.max = 2.5e+06)
Presolved Problem  :
  Problem name     : t_KHB05250
  Variables        : 1299 (24 binary, 0 integer, 0 implicit integer, 1275 continuous)
  Constraints      : 100 initial, 100 maximal
  Objective        : minimize, 1273 non-zeros (abs.min = 136, abs.max = 2.5e+06)
Presolvers         :   ExecTime  SetupTime  Calls  FixedVars   AggrVars   ChgTypes  ChgBounds   AddHoles    DelCons    AddCons   ChgSides   ChgCoefs
  boundshift       :       0.00       0.00      0          0          0          0          0          0          0          0          0          0
  convertinttobin  :       0.00       0.00      0          0          0          0          0          0          0          0          0          0
  domcol           :       0.00       0.00      1          0          0          0          0          0          0          0          0          0
  dualagg          :       0.00       0.00      0          0          0          0          0          0          0          0          0          0
  dualcomp         :       0.00       0.00      1          0          0          0          0          0          0          0          0          0
  dualinfer        :       0.00       0.00      0          0          0          0          0          0          0          0          0          0
  gateextraction   :       0.00       0.00      0          0          0          0          0          0          0          0          0          0
  implics          :       0.00       0.00      2          0          0          0          0          0          0          0          0          0
  inttobinary      :       0.00       0.00      0          0          0          0          0          0          0          0          0          0
  qpkktref         :       0.00       0.00      0          0          0          0          0          0          0          0          0          0
  redvub           :       0.00       0.00      0          0          0          0          0          0          0          0          0          0
  sparsify         :       0.01       0.00      1          0          0          0          0          0          0          0          0          0
  stuffing         :       0.00       0.00      0          0          0          0          0          0          0          0          0          0
  symbreak         :       0.00       0.00      0          0          0          0          0          0          0          0          0          0
  symmetry         :       0.00       0.00      0          0          0          0          0          0          0          0          0          0
  trivial          :       0.00       0.00      4         50          0          0          0          0          0          0          0          0
  tworowbnd        :       0.00       0.00      0          0          0          0          0          0          0          0          0          0
  dualfix          :       0.00       0.00      4          0          0          0          0          0          0          0          0          0
  genvbounds       :       0.00       0.00      0          0          0          0          0          0          0          0          0          0
  orbitalfixing    :       0.00       0.00      0          0          0          0          0          0          0          0          0          0
  probing          :       0.00       0.00      1          0          0          0          0          0          0          0          0          0
  pseudoobj        :       0.00       0.00      0          0          0          0          0          0          0          0          0          0
  vbounds          :       0.00       0.00      0          0          0          0          0          0          0          0          0          0
  varbound         :       0.00       0.00      2          0          0          0          0          0          0          0          0          0
  linear           :       0.00       0.00      6          1          0          0       2596          0          1          0          0          0
  logicor          :       0.00       0.00      0          0          0          0          0          0          0          0          0          0
  benders          :       0.00       0.00      0          0          0          0          0          0          0          0          0          0
  components       :       0.00       0.00      1          0          0          0          0          0          0          0          0          0
  root node        :          -          -      -         16          -          -       4088          -          -          -          -          -
Constraints        :     Number  MaxNumber  #Separate #Propagate    #EnfoLP    #EnfoRelax  #EnfoPS    #Check   #ResProp    Cutoffs    DomReds       Cuts    Applied      Conss   Children
  benderslp        :          0          0          0          0          5          0          0         57          0          0          0          0          0          0          0
  integral         :          0          0          0          0          5          0          0         57          0          0        147          0          0          0          4
  varbound         :         24         24         17        258          1          0          0         52         15          1          4          0          0          0          0
  linear           :         76         76         17        257          1          0          0         32          3          0        172          2          0          0          0
  logicor          :          0+         1          0          0          0          0          0          0          0          0          0          0          0          0          0
  benders          :          0          0          0          0          1          0          0         29          0          0          0          0          0          0          0
  countsols        :          0          0          0          0          1          0          0         29          0          0          0          0          0          0          0
  components       :          0          0          0          0          0          0          0          0          0          0          0          0          0          0          0
Constraint Timings :  TotalTime  SetupTime   Separate  Propagate     EnfoLP     EnfoPS     EnfoRelax   Check    ResProp    SB-Prop
  benderslp        :       0.00       0.00       0.00       0.00       0.00       0.00       0.00       0.00       0.00       0.00
  integral         :       0.00       0.00       0.00       0.00       0.00       0.00       0.00       0.00       0.00       0.00
  varbound         :       0.00       0.00       0.00       0.00       0.00       0.00       0.00       0.00       0.00       0.00
  linear           :       0.00       0.00       0.00       0.00       0.00       0.00       0.00       0.00       0.00       0.00
  logicor          :       0.00       0.00       0.00       0.00       0.00       0.00       0.00       0.00       0.00       0.00
  benders          :       0.00       0.00       0.00       0.00       0.00       0.00       0.00       0.00       0.00       0.00
  countsols        :       0.00       0.00       0.00       0.00       0.00       0.00       0.00       0.00       0.00       0.00
  components       :       0.00       0.00       0.00       0.00       0.00       0.00       0.00       0.00       0.00       0.00
Propagators        : #Propagate   #ResProp    Cutoffs    DomReds
  dualfix          :          9          0          0          0
  genvbounds       :          0          0          0          0
  nlobbt           :          0          0          0          0
  obbt             :          0          0          0          0
  orbitalfixing    :          4          0          0          0
  probing          :          0          0          0          0
  pseudoobj        :         45          0          0          0
  redcost          :         29          0          0          0
  rootredcost      :          1          0          0       1042
  vbounds          :        216          0          0          0
Propagator Timings :  TotalTime  SetupTime   Presolve  Propagate    ResProp    SB-Prop
  dualfix          :       0.00       0.00       0.00       0.00       0.00       0.00
  genvbounds       :       0.00       0.00       0.00       0.00       0.00       0.00
  nlobbt           :       0.00       0.00       0.00       0.00       0.00       0.00
  obbt             :       0.00       0.00       0.00       0.00       0.00       0.00
  orbitalfixing    :       0.00       0.00       0.00       0.00       0.00       0.00
  probing          :       0.00       0.00       0.00       0.00       0.00       0.00
  pseudoobj        :       0.01       0.00       0.00       0.01       0.00       0.00
  redcost          :       0.00       0.00       0.00       0.00       0.00       0.00
  rootredcost      :       0.00       0.00       0.00       0.00       0.00       0.00
  vbounds          :       0.00       0.00       0.00       0.00       0.00       0.00
Orbital fixing     :
  vars fixed to 0  :          0
  vars fixed to 1  :          0
Conflict Analysis  :       Time      Calls    Success    DomReds  Conflicts   Literals    Reconvs ReconvLits   Dualrays   Nonzeros   LP Iters   (pool size: [--,--])
  propagation      :       0.00          1          1          -          1       14.0          0        0.0          -          -          -
  infeasible LP    :       0.00          0          0          -          0        0.0          0        0.0          0        0.0          0
  bound exceed. LP :       0.00          4       2723          -          4        1.0          0        0.0       2719        1.0          0
  strong branching :       0.00          0          0          -          0        0.0          0        0.0          -          -          0
  pseudo solution  :       0.00          0          0          -          0        0.0          0        0.0          -          -          -
  applied globally :       0.00          -          -       2719          4        1.0          -          -       2719          -          -
  applied locally  :          -          -          -          0          1       14.0          -          -          0          -          -
Separators         :   ExecTime  SetupTime      Calls    Cutoffs    DomReds       Cuts    Applied      Conss
  cut pool         :       0.00                    36          -          -        397          -          -    (maximal pool size: 667)
  aggregation      :       0.10       0.00         17          0          0          0          0          0
  cgmip            :       0.00       0.00          0          0          0          0          0          0
  clique           :       0.00       0.00          1          0          0          0          0          0
  closecuts        :       0.00       0.00          0          0          0          0          0          0
  cmir             :       0.00       0.00          0          0          0          0         67          0
  convexproj       :       0.00       0.00          0          0          0          0          0          0
  disjunctive      :       0.00       0.00          0          0          0          0          0          0
  eccuts           :       0.00       0.00          0          0          0          0          0          0
  flowcover        :       0.00       0.00          0          0          0          0         11          0
  gauge            :       0.00       0.00          0          0          0          0          0          0
  gomory           :       0.00       0.00         10          0          0          0          2          0
  impliedbounds    :       0.00       0.00         17          0          0          0          0          0
  intobj           :       0.00       0.00          0          0          0          0          0          0
  mcf              :       0.00       0.00          5          0          0          0          0          0
  oddcycle         :       0.00       0.00          0          0          0          0          0          0
  rapidlearning    :       0.00       0.00          0          0          0          0          0          0
  strongcg         :       0.01       0.00         17          0          0          0          0          0
  zerohalf         :       0.00       0.00         17          0          0          0          0          0
Pricers            :   ExecTime  SetupTime      Calls       Vars
  problem variables:       0.00          -          0          0
Branching Rules    :   ExecTime  SetupTime   BranchLP  BranchExt   BranchPS    Cutoffs    DomReds       Cuts      Conss   Children
  allfullstrong    :       0.00       0.00          0          0          0          0          0          0          0          0
  cloud            :       0.00       0.00          0          0          0          0          0          0          0          0
  distribution     :       0.00       0.00          0          0          0          0          0          0          0          0
  fullstrong       :       0.00       0.00          0          0          0          0          0          0          0          0
  inference        :       0.00       0.00          0          0          0          0          0          0          0          0
  leastinf         :       0.00       0.00          0          0          0          0          0          0          0          0
  lookahead        :       0.00       0.00          0          0          0          0          0          0          0          0
  mostinf          :       0.00       0.00          0          0          0          0          0          0          0          0
  multaggr         :       0.00       0.00          0          0          0          0          0          0          0          0
  nodereopt        :       0.00       0.00          0          0          0          0          0          0          0          0
  pscost           :       0.00       0.00          0          0          0          0          0          0          0          0
  random           :       0.00       0.00          0          0          0          0          0          0          0          0
  relpscost        :       0.00       0.00          4          0          0          0        147          0          0          4
Primal Heuristics  :   ExecTime  SetupTime      Calls      Found       Best
  LP solutions     :       0.00          -          -          1          1
  relax solutions  :       0.00          -          -          0          0
  pseudo solutions :       0.00          -          -          0          0
  strong branching :       0.00          -          -          2          0
  actconsdiving    :       0.00       0.00          0          0          0
  alns             :       0.02       0.00          1          0          0
  bound            :       0.00       0.00          0          0          0
  clique           :       0.00       0.00          0          0          0
  coefdiving       :       0.00       0.00          0          0          0
  completesol      :       0.00       0.00          0          0          0
  conflictdiving   :       0.00       0.00          0          0          0
  crossover        :       0.00       0.00          0          0          0
  dins             :       0.00       0.00          0          0          0
  distributiondivin:       0.00       0.00          0          0          0
  dualval          :       0.00       0.00          0          0          0
  farkasdiving     :       0.00       0.00          0          0          0
  feaspump         :       0.00       0.00          0          0          0
  fixandinfer      :       0.00       0.00          0          0          0
  fracdiving       :       0.00       0.00          0          0          0
  gins             :       0.00       0.00          0          0          0
  guideddiving     :       0.00       0.00          0          0          0
  indicator        :       0.00       0.00          0          0          0
  intdiving        :       0.00       0.00          0          0          0
  intshifting      :       0.00       0.00          1          1          1
  linesearchdiving :       0.00       0.00          0          0          0
  localbranching   :       0.00       0.00          0          0          0
  locks            :       0.00       0.00          1          1          1
  lpface           :       0.00       0.00          0          0          0
  mpec             :       0.00       0.00          0          0          0
  multistart       :       0.00       0.00          0          0          0
  mutation         :       0.00       0.00          0          0          0
  nlpdiving        :       0.00       0.00          0          0          0
  objpscostdiving  :       0.00       0.00          0          0          0
  octane           :       0.00       0.00          0          0          0
  ofins            :       0.00       0.00          0          0          0
  oneopt           :       0.00       0.00          6          0          0
  proximity        :       0.00       0.00          0          0          0
  pscostdiving     :       0.00       0.00          0          0          0
  randrounding     :       0.00       0.00         21          0          0
  rens             :       0.03       0.00          1          1          1
  reoptsols        :       0.00       0.00          0          0          0
  repair           :       0.00       0.00          0          0          0
  rins             :       0.00       0.00          0          0          0
  rootsoldiving    :       0.00       0.00          0          0          0
  rounding         :       0.00       0.00         22          0          0
  shiftandpropagate:       0.00       0.00          0          0          0
  shifting         :       0.00       0.00         21          3          3
  simplerounding   :       0.00       0.00         23         20          3
  subnlp           :       0.00       0.00          0          0          0
  trivial          :       0.00       0.00          2          0          0
  trivialnegation  :       0.00       0.00          0          0          0
  trysol           :       0.00       0.00          0          0          0
  twoopt           :       0.00       0.00          0          0          0
  undercover       :       0.00       0.00          0          0          0
  vbounds          :       0.00       0.00          0          0          0
  veclendiving     :       0.00       0.00          0          0          0
  zeroobj          :       0.00       0.00          0          0          0
  zirounding       :       0.00       0.00          2          0          0
  other solutions  :          -          -          -          0          -
Diving Statistics  :      Calls      Nodes   LP Iters Backtracks  Conflicts   MinDepth   MaxDepth   AvgDepth  RoundSols  NLeafSols  MinSolDpt  MaxSolDpt  AvgSolDpt
  actconsdiving    :          0          -          -          -          -          -          -          -          -          -          -          -          -
  coefdiving       :          0          -          -          -          -          -          -          -          -          -          -          -          -
  conflictdiving   :          0          -          -          -          -          -          -          -          -          -          -          -          -
  distributiondivin:          0          -          -          -          -          -          -          -          -          -          -          -          -
  farkasdiving     :          0          -          -          -          -          -          -          -          -          -          -          -          -
  fracdiving       :          0          -          -          -          -          -          -          -          -          -          -          -          -
  guideddiving     :          0          -          -          -          -          -          -          -          -          -          -          -          -
  linesearchdiving :          0          -          -          -          -          -          -          -          -          -          -          -          -
  pscostdiving     :          0          -          -          -          -          -          -          -          -          -          -          -          -
  veclendiving     :          0          -          -          -          -          -          -          -          -          -          -          -          -
Neighborhoods      :      Calls  SetupTime  SolveTime SolveNodes       Sols       Best       Exp3  EpsGreedy        UCB TgtFixRate  Opt  Inf Node Stal  Sol  Usr Othr Actv
  rens             :          0       0.00       0.00          0          0          0    0.00000   -1.00000    1.00000      0.900    0    0    0    0    0    0    0    1
  rins             :          0       0.00       0.00          0          0          0    0.00000   -1.00000    1.00000      0.900    0    0    0    0    0    0    0    1
  mutation         :          0       0.00       0.00          0          0          0    0.00000   -1.00000    1.00000      0.900    0    0    0    0    0    0    0    1
  localbranching   :          0       0.00       0.00          0          0          0    0.00000   -1.00000    1.00000      0.900    0    0    0    0    0    0    0    1
  crossover        :          0       0.00       0.00          0          0          0    0.00000   -1.00000    1.00000      0.900    0    0    0    0    0    0    0    1
  proximity        :          0       0.00       0.00          0          0          0    0.00000   -1.00000    1.00000      0.900    0    0    0    0    0    0    0    1
  zeroobjective    :          1       0.00       0.02          1          0          0    0.00000   -1.00000    1.00000      0.700    0    1    0    0    0    0    0    1
  dins             :          0       0.00       0.00          0          0          0    0.00000   -1.00000    1.00000      0.900    0    0    0    0    0    0    0    1
LP                 :       Time      Calls Iterations  Iter/call   Iter/sec  Time-0-It Calls-0-It    ItLimit
  primal LP        :       0.00          1          0       0.00          -       0.00          1
  dual LP          :       0.01         26        217       9.86   21700.00       0.00          4
  lex dual LP      :       0.00          0          0       0.00          -
  barrier LP       :       0.00          0          0       0.00          -       0.00          0
  resolve instable :       0.00          0          0       0.00          -
  diving/probing LP:       0.00          4         95      23.75          -
  strong branching :       0.00          4         13       3.25          -          -          -          0
    (at root node) :          -          4         13       3.25          -
  conflict analysis:       0.00          0          0       0.00          -
B&B Tree           :
  number of runs   :          1
  nodes            :          5 (2 internal, 3 leaves)
  feasible leaves  :          1
  infeas. leaves   :          0
  objective leaves :          2
  nodes (total)    :          5 (2 internal, 3 leaves)
  nodes left       :          0
  max depth        :          2
  max depth (total):          2
  backtracks       :          2 (40.0%)
  early backtracks :          0 (0.0%)
  nodes exc. ref.  :          0 (0.0%)
  delayed cutoffs  :          0
  repropagations   :          1 (0 domain reductions, 0 cutoffs)
  avg switch length:       2.40
  switching time   :       0.00
Root Node          :
  First LP value   : +9.59194640000000e+07
  First LP Iters   :         16 (1600.00 Iter/sec)
  First LP Time    :       0.01
  Final Dual Bound : +1.06935896443200e+08
  Final Root Iters :        205
  Root LP Estimate : +1.06935896443200e+08
Solution           :
  Solutions found  :         29 (10 improvements)
  First Solution   : +1.28786007000000e+08   (in run 1, after 1 nodes, 0.01 seconds, depth 2, found by <locks>)
  Gap First Sol.   :   infinite
  Gap Last Sol.    :       0.00 %
  Primal Bound     : +1.06940226000000e+08   (in run 1, after 5 nodes, 0.19 seconds, depth 2, found by <relaxation>)
  Dual Bound       : +1.06940226000000e+08
  Gap              :       0.00 %
  Avg. Gap         :      14.27 % (2.71 primal-dual integral)
  Tree Data        : 5 nodes (5 visited, 2 inner, 3 leaves, 0 open), progress: 1.0000
Tree Estimation    :       estim       value       trend  resolution      smooth
  wbe              :           5           -           -           -           -
  tree profile     :          -1           -           -           -           -
  gap              :           5     1.00000     0.71349           1           4
  progress         :           5     1.00000     0.40369           1           5
  leaf-frequency   :           5     0.50000     0.38347           1           5
  ssg              :           5     0.00000    -0.67784           1           4
  open-nodes       :           5     0.00000     1.25510           1           6


SCIP> checksol

check best solution
solution is feasible in original problem
Violation          :    absolute    relative
  bounds           : 1.36424e-12 1.36424e-12
  integrality      : 0.00000e+00           -
  LP rows          : 2.94875e-12 2.94875e-12
  constraints      : 2.94875e-12 2.94875e-12

SCIP> write sol /local/tmp/bzfhende-tmpdir/bzfhende.MMMc.73_khb05250.scip.M640.ennable_treeprofile.sol

written solution information to file </local/tmp/bzfhende-tmpdir/bzfhende.MMMc.73_khb05250.scip.M640.enable_treeprofile.sol>

SCIP> quit

Disabling tree profile data collection
Read MPS: 1
MIP has 1350 vars and 101 constraints
Read SOL: 1
Objective value computed by solver: 106940226

Integrality tolerance: 1/10000
Linear tolerance: 1/10000
Objective tolerance: 1/10000

Check SOL: Integrality 1 Constraints 1 Objective 1
Maximum violations: Integrality 0 Constraints 2e-12 Objective 4.9247e-09
@04 1566499854
-----------------------------
Do 22. Aug 20:50:54 CEST 2019
-----------------------------

=ready=
